p cnf 751 2053
-751 86 0
-751 750 0
-750 -749 -747 0
-750 -86 751 0
-749 -748 -265 0
-748 -739 0
-747 -739 -300 0
-746 -738 -729 0
-745 -737 -727 0
-744 89 0
-744 736 0
-743 88 0
-743 735 0
-742 87 0
-742 734 0
-741 85 0
-741 733 0
-740 84 0
-740 732 0
-739 -731 -721 0
-738 -730 -101 0
-737 -728 -100 0
-736 -726 -714 0
-736 -89 744 0
-735 -725 -713 0
-735 -88 743 0
-734 -724 -712 0
-734 -87 742 0
-733 -723 -711 0
-733 -85 741 0
-732 -722 -710 0
-732 -84 740 0
-731 -720 -471 0
-730 -709 0
-729 -709 -104 0
-728 -708 0
-727 -708 -103 0
-726 -719 -434 0
-725 -718 -392 0
-724 -717 -418 0
-723 -716 -524 0
-722 -715 -523 0
-721 -707 -487 0
-720 -707 0
-719 -704 0
-718 -703 0
-717 -702 0
-716 -701 0
-715 -700 0
-714 -704 -474 0
-713 -703 -444 0
-712 -702 -464 0
-711 -701 -531 0
-710 -700 -530 0
-709 -706 -697 0
-708 -705 -695 0
-707 26 0
-707 31 0
-707 693 0
-706 -698 -480 0
-705 -696 -479 0
-704 31 0
-704 115 0
-704 693 0
-703 28 0
-703 31 0
-703 693 0
-702 27 0
-702 31 0
-702 693 0
-701 25 0
-701 31 0
-701 693 0
-700 31 0
-700 114 0
-700 693 0
-699 -694 0
-699 -576 0
-698 -682 0
-697 -682 -505 0
-696 -681 0
-695 -681 -504 0
-694 32 0
-694 67 0
-694 571 0
-694 692 0
-693 -664 -663 0
-693 -115 -31 704 0
-693 -114 -31 700 0
-693 -31 -28 703 0
-693 -31 -27 702 0
-693 -31 -26 707 0
-693 -31 -25 701 0
-692 -571 -67 -32 694 0
-692 635 0
-692 663 0
-692 664 0
-691 -678 -657 0
-690 -677 -655 0
-689 -676 -653 0
-688 -675 -651 0
-687 -673 -648 0
-686 -672 -646 0
-685 -671 -644 0
-684 -670 -642 0
-683 -669 -640 0
-682 59 0
-682 662 0
-681 58 0
-681 661 0
-680 -660 -633 0
-679 -659 -631 0
-678 -658 -14 0
-677 -656 -13 0
-676 -654 -12 0
-675 -652 -11 0
-674 -650 -629 0
-673 -649 -9 0
-672 -647 -8 0
-671 -645 -7 0
-670 -643 -6 0
-669 -641 -5 0
-668 -639 -627 0
-667 -638 -625 0
-666 -637 -623 0
-665 -636 -621 0
-664 -663 -635 692 0
-664 585 0
-664 586 0
-664 587 0
-664 599 0
-664 600 0
-664 601 0
-664 602 0
-664 603 0
-663 581 0
-663 582 0
-663 583 0
-663 584 0
-663 595 0
-663 596 0
-663 597 0
-663 598 0
-662 -603 -602 -601 -600 -599 -587 -586 -585 0
-662 -59 682 0
-661 -598 -597 -596 -595 -584 -583 -582 -581 0
-661 -58 681 0
-660 -634 -16 0
-659 -632 -15 0
-658 -620 0
-657 -620 -81 0
-656 -619 0
-655 -619 -80 0
-654 -618 0
-653 -618 -79 0
-652 -617 0
-651 -617 -78 0
-650 -630 -10 0
-649 -616 0
-648 -616 -76 0
-647 -615 0
-646 -615 -75 0
-645 -614 0
-644 -614 -74 0
-643 -613 0
-642 -613 -73 0
-641 -612 0
-640 -612 -72 0
-639 -628 -4 0
-638 -626 -3 0
-637 -624 -2 0
-636 -622 -1 0
-635 604 0
-635 605 0
-635 606 0
-635 607 0
-635 608 0
-635 609 0
-635 610 0
-635 611 0
-634 -594 0
-633 -594 -83 0
-632 -593 0
-631 -593 -82 0
-630 -592 0
-629 -592 -77 0
-628 -591 0
-627 -591 -71 0
-626 -590 0
-625 -590 -70 0
-624 -589 0
-623 -589 -69 0
-622 -588 0
-621 -588 -68 0
-620 193 0
-620 537 0
-620 570 0
-620 573 0
-620 578 0
-619 193 0
-619 535 0
-619 570 0
-619 575 0
-619 578 0
-618 193 0
-618 536 0
-618 570 0
-618 574 0
-618 578 0
-617 193 0
-617 537 0
-617 570 0
-617 574 0
-617 578 0
-616 193 0
-616 537 0
-616 568 0
-616 573 0
-616 580 0
-615 192 0
-615 538 0
-615 568 0
-615 572 0
-615 580 0
-614 192 0
-614 535 0
-614 568 0
-614 575 0
-614 580 0
-613 192 0
-613 536 0
-613 568 0
-613 574 0
-613 580 0
-612 192 0
-612 537 0
-612 568 0
-612 574 0
-612 580 0
-611 -610 -609 -608 -607 -606 -605 -604 635 0
-611 -580 -577 -572 -535 -131 0
-610 -579 -578 -572 -535 -131 0
-609 -580 -578 -573 -535 -131 0
-608 -580 -578 -572 -536 -131 0
-607 -580 -578 -572 -537 -131 0
-606 -580 -578 -574 -535 -131 0
-605 -578 -572 -570 -535 -131 0
-604 -580 -572 -568 -535 -131 0
-603 -602 -601 -600 -599 -587 -586 -585 664 0
-603 -578 -573 -570 -537 -193 0
-602 -578 -575 -570 -535 -193 0
-601 -578 -574 -570 -536 -193 0
-600 -578 -574 -570 -537 -193 0
-599 -580 -573 -568 -537 -193 0
-598 -597 -596 -595 -584 -583 -582 -581 663 0
-598 -580 -572 -568 -538 -192 0
-597 -580 -575 -568 -535 -192 0
-596 -580 -574 -568 -536 -192 0
-595 -580 -574 -568 -537 -192 0
-594 193 0
-594 537 0
-594 568 0
-594 570 0
-594 575 0
-593 193 0
-593 538 0
-593 568 0
-593 570 0
-593 574 0
-592 193 0
-592 536 0
-592 568 0
-592 570 0
-592 575 0
-591 192 0
-591 535 0
-591 568 0
-591 570 0
-591 573 0
-590 192 0
-590 536 0
-590 568 0
-590 570 0
-590 572 0
-589 192 0
-589 537 0
-589 568 0
-589 570 0
-589 572 0
-588 192 0
-588 535 0
-588 568 0
-588 570 0
-588 574 0
-587 -575 -570 -568 -537 -193 0
-586 -574 -570 -568 -538 -193 0
-585 -575 -570 -568 -536 -193 0
-584 -573 -570 -568 -535 -192 0
-583 -572 -570 -568 -536 -192 0
-582 -572 -570 -568 -537 -192 0
-581 -574 -570 -568 -535 -192 0
-580 -575 -568 -535 -192 614 0
-580 -574 -568 -537 -192 612 0
-580 -574 -568 -536 -192 613 0
-580 -573 -568 -537 -193 616 0
-580 -572 -568 -538 -192 615 0
-580 117 0
-580 569 0
-579 191 0
-579 569 0
-578 -575 -570 -535 -193 619 0
-578 -574 -570 -537 -193 617 0
-578 -574 -570 -536 -193 618 0
-578 -573 -570 -537 -193 620 0
-578 116 0
-578 567 0
-577 190 0
-577 567 0
-576 65 0
-576 67 0
-576 571 0
-575 -570 -568 -537 -193 594 0
-575 -570 -568 -536 -193 592 0
-575 521 0
-575 558 0
-574 -570 -568 -538 -193 593 0
-574 -570 -568 -535 -192 588 0
-574 534 0
-574 558 0
-573 -570 -568 -535 -192 591 0
-573 521 0
-573 566 0
-572 -570 -568 -537 -192 589 0
-572 -570 -568 -536 -192 590 0
-572 534 0
-572 566 0
-571 -565 -564 -563 -528 -522 -499 -117 -116 0
-571 -67 -65 576 0
-570 117 0
-570 562 0
-569 -562 0
-569 -191 579 0
-569 -117 580 0
-568 116 0
-568 560 0
-567 -560 0
-567 -190 577 0
-567 -116 578 0
-566 -558 0
-566 -534 572 0
-566 -521 573 0
-565 -561 0
-564 -559 0
-563 -557 0
-562 -556 -549 0
-562 -117 570 0
-561 -555 -547 0
-560 -554 -545 0
-560 -116 568 0
-559 -553 -543 0
-558 -552 -541 0
-558 -534 574 0
-558 -521 575 0
-557 -551 -539 0
-556 -550 -54 0
-555 -548 -54 0
-554 -546 -118 0
-553 -544 -118 0
-552 -542 -55 0
-551 -540 -55 0
-550 -533 0
-549 -533 -121 0
-548 -533 0
-547 -533 -120 0
-546 -532 0
-545 -532 -252 0
-544 -532 0
-543 -532 -251 0
-542 -527 0
-541 -527 -123 0
-540 -527 0
-539 -527 -122 0
-538 486 0
-538 513 0
-537 513 0
-537 514 0
-536 486 0
-536 529 0
-535 514 0
-535 529 0
-534 -521 0
-533 -526 -62 0
-532 -525 -62 0
-531 -524 0
-530 -523 0
-529 -514 535 0
-529 -513 0
-529 -486 536 0
-528 -520 0
-527 -519 -62 0
-526 -518 -508 0
-525 -517 0
-524 -516 -503 0
-523 -515 -501 0
-522 -512 0
-521 -511 -495 0
-520 -510 -493 0
-519 -509 -492 0
-518 -507 -343 0
-517 -506 -490 0
-516 -502 -353 0
-515 -500 -448 0
-514 -513 537 0
-514 -486 0
-513 -498 -483 0
-513 -486 538 0
-512 -497 -481 0
-511 -496 -119 0
-510 -494 -119 0
-509 -491 -283 0
-508 -488 -355 0
-507 -488 0
-506 -489 -459 0
-505 -480 0
-504 -479 0
-503 -478 -360 0
-502 -478 0
-501 -469 -450 0
-500 -450 0
-499 -485 0
-498 -484 -56 0
-497 -482 -56 0
-496 -455 0
-495 -455 -254 0
-494 -455 0
-493 -455 -253 0
-492 -477 -325 0
-491 -477 0
-490 -473 -450 0
-489 -450 0
-488 -472 0
-487 -471 0
-486 -476 -467 0
-485 -475 -465 0
-484 -445 0
-483 -445 -125 0
-482 -445 0
-481 -445 -124 0
-480 94 0
-480 462 0
-479 93 0
-479 460 0
-478 -470 -457 0
-477 -463 0
-476 -468 -57 0
-475 -466 -57 0
-474 -434 0
-473 -459 0
-472 -461 -451 0
-471 -458 -447 0
-470 -456 -348 0
-469 -448 0
-468 -420 0
-467 -420 -127 0
-466 -420 0
-465 -420 -126 0
-464 -418 0
-463 -454 -442 0
-462 -453 0
-462 -94 480 0
-461 -452 -348 0
-460 -449 0
-460 -93 479 0
-459 -440 0
-458 -446 -349 0
-457 -436 -410 0
-456 -436 0
-455 -434 -62 0
-454 -443 -349 0
-453 -441 -432 0
-452 -437 0
-451 -437 -402 0
-450 -439 -429 0
-449 -438 -427 0
-448 -435 -422 0
-447 -425 -388 0
-446 -425 0
-445 -418 -62 0
-444 -392 0
-443 -426 0
-442 -426 -377 0
-441 -433 -243 0
-440 -431 -416 0
-439 -430 -231 0
-438 -428 -231 0
-437 -424 -412 0
-436 -423 -409 0
-435 -421 -90 0
-434 -419 -404 0
-433 -413 0
-432 -413 -276 0
-431 -417 -90 0
-430 -406 0
-429 -406 -318 0
-428 -407 0
-427 -407 -317 0
-426 -415 -401 0
-425 -414 -399 0
-424 -411 -331 0
-423 -408 -331 0
-422 -395 -207 0
-421 -395 0
-420 -392 -62 0
-419 -405 -247 0
-418 -403 -390 0
-417 -396 0
-416 -396 -182 0
-415 -400 -348 0
-414 -398 -348 0
-413 -397 -384 0
-412 -373 -347 0
-411 -347 0
-410 -348 0
-409 -372 -347 0
-408 -347 0
-407 -394 -380 0
-406 -393 -378 0
-405 -386 0
-404 -386 -278 0
-403 -391 -308 0
-402 -348 0
-401 -389 -335 0
-400 -335 0
-399 -387 -335 0
-398 -335 0
-397 -385 -344 0
-396 -383 -370 0
-395 -382 -368 0
-394 -381 -332 0
-393 -379 -332 0
-392 -376 -364 0
-391 -374 0
-390 -374 -338 0
-389 -348 0
-388 -349 0
-387 -348 0
-386 -375 -362 0
-385 -347 0
-384 -356 -347 0
-383 -371 -42 0
-382 -369 -42 0
-381 -346 0
-380 -367 -346 0
-379 -346 0
-378 -366 -346 0
-377 -349 0
-376 -365 -98 0
-375 -363 -329 0
-374 -361 -357 0
-373 -331 0
-372 -331 0
-371 -335 0
-370 -335 -208 0
-369 -335 0
-368 -335 -206 0
-367 -332 0
-366 -332 0
-365 -359 0
-364 -359 -110 0
-363 -354 0
-362 -354 -352 0
-361 -358 -311 0
-360 -353 0
-359 -351 -350 0
-358 -345 0
-357 -345 -340 0
-356 -344 0
-355 -343 0
-354 -339 0
-353 -337 0
-352 -329 0
-351 -342 -312 0
-350 -341 -313 0
-349 -333 0
-348 -336 0
-347 -334 0
-346 -330 0
-345 -328 -310 0
-344 -326 -305 0
-343 -327 -307 0
-342 -313 0
-341 -312 0
-340 -311 0
-339 -324 -301 0
-338 -308 0
-337 -323 -298 0
-336 -322 -296 0
-335 -321 -294 0
-334 -320 -292 0
-333 -319 -290 0
-332 -316 -288 0
-331 -315 -286 0
-330 -314 -284 0
-329 -303 0
-328 -309 -49 0
-327 -306 -91 0
-326 -304 -44 0
-325 -283 0
-324 -302 -49 0
-323 -299 -91 0
-322 -297 -44 0
-321 -295 -43 0
-320 -293 -43 0
-319 -291 -38 0
-318 -231 0
-317 -231 0
-316 -289 -38 0
-315 -287 -34 0
-314 -285 -34 0
-313 -281 -273 0
-312 -282 -275 0
-311 -280 -269 0
-310 -270 -225 0
-309 -270 0
-308 -279 -267 0
-307 -263 -216 0
-306 -263 0
-305 -261 -211 0
-304 -261 0
-303 -277 -249 0
-302 -271 0
-301 -271 -188 0
-300 -265 0
-299 -264 0
-298 -264 -184 0
-297 -262 0
-296 -262 -183 0
-295 -259 0
-294 -259 -181 0
-293 -260 0
-292 -260 -180 0
-291 -258 0
-290 -258 -179 0
-289 -257 0
-288 -257 -178 0
-287 -255 0
-286 -255 -176 0
-285 -256 0
-284 -256 -175 0
-283 -248 0
-282 -274 -45 0
-281 -272 -36 0
-280 -268 -44 0
-279 -266 -35 0
-278 -247 0
-277 -250 -37 0
-276 -243 0
-275 -229 -156 0
-274 -229 0
-273 -228 -153 0
-272 -228 0
-271 -246 -227 0
-270 -245 -224 0
-269 -222 -148 0
-268 -222 0
-267 -221 -145 0
-266 -221 0
-265 -244 -220 0
-264 -242 -218 0
-263 -241 -215 0
-262 -240 -213 0
-261 -239 -210 0
-260 -238 -205 0
-259 -237 -203 0
-258 -236 -201 0
-257 -235 -199 0
-256 -234 -197 0
-255 -233 -195 0
-254 -119 0
-253 -119 0
-252 -118 0
-251 -118 0
-250 -230 0
-249 -230 -111 0
-248 -232 -187 0
-247 -189 0
-246 -226 -42 0
-245 -223 -42 0
-244 -219 -34 0
-243 -185 0
-242 -217 -37 0
-241 -214 -37 0
-240 -212 -46 0
-239 -209 -46 0
-238 -204 -49 0
-237 -202 -49 0
-236 -200 -40 0
-235 -198 -40 0
-234 -196 -36 0
-233 -194 -36 0
-232 -186 -34 0
-231 -177 0
-230 -174 -173 0
-229 -172 -171 0
-228 -170 -169 0
-227 -150 -47 0
-226 -47 0
-225 -49 0
-224 -149 -47 0
-223 -47 0
-222 -168 -167 0
-221 -166 -165 0
-220 -142 -92 0
-219 -92 0
-218 -141 -47 0
-217 -47 0
-216 -91 0
-215 -140 -47 0
-214 -47 0
-213 -139 -45 0
-212 -45 0
-211 -44 0
-210 -138 -45 0
-209 -45 0
-208 -42 0
-207 -90 0
-206 -42 0
-205 -137 -48 0
-204 -48 0
-203 -136 -48 0
-202 -48 0
-201 -135 -39 0
-200 -39 0
-199 -134 -39 0
-198 -39 0
-197 -133 -35 0
-196 -35 0
-195 -132 -35 0
-194 -35 0
-193 -130 -129 0
-192 -130 -128 0
-191 -117 0
-190 -116 0
-189 -164 -163 0
-188 -49 0
-187 -109 -92 0
-186 -92 0
-185 -162 -161 0
-184 -91 0
-183 -44 0
-182 -90 0
-181 -43 0
-180 -43 0
-179 -38 0
-178 -38 0
-177 -160 -159 0
-176 -34 0
-175 -34 0
-174 -158 -40 0
-173 -157 -43 0
-172 -155 -43 0
-171 -154 -48 0
-170 -152 -39 0
-169 -151 -41 0
-168 -147 -102 0
-167 -146 -48 0
-166 -144 -38 0
-165 -143 -41 0
-164 -113 -46 0
-163 -112 -99 0
-162 -108 -42 0
-161 -107 -47 0
-160 -106 -37 0
-159 -105 -41 0
-158 -43 0
-157 -40 0
-156 -45 0
-155 -48 0
-154 -43 0
-153 -36 0
-152 -41 0
-151 -39 0
-150 -42 0
-149 -42 0
-148 -44 0
-147 -48 0
-146 -102 0
-145 -35 0
-144 -41 0
-143 -38 0
-142 -34 0
-141 -37 0
-140 -37 0
-139 -46 0
-138 -46 0
-137 -49 0
-136 -49 0
-135 -40 0
-134 -40 0
-133 -36 0
-132 -36 0
-131 32 0
-131 67 0
-131 95 0
-130 -95 -67 -32 0
-129 -95 -61 -33 -31 0
-128 -95 -60 -33 -31 0
-127 -57 0
-126 -57 0
-125 -56 0
-124 -56 0
-123 -55 0
-122 -55 0
-121 -54 0
-120 -54 0
-119 -96 -19 0
-118 -97 -17 0
-117 -96 -20 0
-116 -97 -18 0
-115 19 0
-115 96 0
-114 17 0
-114 97 0
-113 -99 0
-112 -46 0
-111 -37 0
-110 -98 0
-109 -34 0
-108 -47 0
-107 -42 0
-106 -41 0
-105 -37 0
-104 -101 0
-103 -100 0
-102 18 0
-102 52 0
-102 66 0
-101 33 0
-101 51 0
-100 33 0
-100 50 0
-99 20 0
-99 23 0
-99 66 0
-98 19 0
-98 23 0
-98 66 0
-97 -63 -53 0
-97 -17 114 0
-96 -63 -23 0
-96 -19 115 0
-95 -67 -32 131 0
-95 -24 -23 0
-94 -61 -33 0
-93 -60 -33 0
-92 17 0
-92 52 0
-92 66 0
-91 22 0
-91 66 0
-90 21 0
-90 66 0
-89 -64 -33 0
-88 -64 -33 0
-87 -64 -33 0
-86 -64 -33 0
-85 -64 -33 0
-84 -64 -33 0
-83 -16 0
-82 -15 0
-81 -14 0
-80 -13 0
-79 -12 0
-78 -11 0
-77 -10 0
-76 -9 0
-75 -8 0
-74 -7 0
-73 -6 0
-72 -5 0
-71 -4 0
-70 -3 0
-69 -2 0
-68 -1 0
-67 -33 0
-66 -52 -18 102 0
-66 -52 -17 92 0
-66 -33 0
-66 -23 -20 99 0
-66 -23 -19 98 0
-66 -22 91 0
-66 -21 90 0
-65 -32 0
-64 -32 0
-63 -31 0
-62 -31 0
-61 -30 0
-60 -29 0
-59 -33 0
-58 -33 0
-57 -28 0
-56 -27 0
-55 -26 0
-54 -25 0
-53 -24 0
-52 -24 0
-51 -33 101 0
-51 -30 -22 0
-50 -33 100 0
-50 -29 -21 0
-49 -16 0
-48 -15 0
-47 -14 0
-46 -13 0
-45 -12 0
-44 -11 0
-43 -10 0
-42 -9 0
-41 -8 0
-40 -7 0
-39 -6 0
-38 -5 0
-37 -4 0
-36 -3 0
-35 -2 0
-34 -1 0
1 34 0
1 68 0
1 636 0
2 35 0
2 69 0
2 637 0
3 36 0
3 70 0
3 638 0
4 37 0
4 71 0
4 639 0
5 38 0
5 72 0
5 669 0
6 39 0
6 73 0
6 670 0
7 40 0
7 74 0
7 671 0
8 41 0
8 75 0
8 672 0
9 42 0
9 76 0
9 673 0
10 43 0
10 77 0
10 650 0
11 44 0
11 78 0
11 675 0
12 45 0
12 79 0
12 676 0
13 46 0
13 80 0
13 677 0
14 47 0
14 81 0
14 678 0
15 48 0
15 82 0
15 659 0
16 49 0
16 83 0
16 660 0
17 118 0
18 116 0
19 119 0
20 117 0
21 50 0
22 51 0
23 95 0
23 96 0
24 52 0
24 53 0
24 95 0
25 54 0
26 55 0
27 56 0
28 57 0
29 50 0
29 60 0
30 51 0
30 61 0
31 62 0
31 63 0
31 128 0
31 129 0
32 64 0
32 65 0
32 130 0
33 58 0
33 59 0
33 66 0
33 67 0
33 84 0
33 85 0
33 86 0
33 87 0
33 88 0
33 89 0
33 93 0
33 94 0
33 128 0
33 129 0
34 109 0
34 142 0
34 175 0
34 176 0
34 232 0
34 244 0
34 314 0
34 315 0
35 145 0
35 194 0
35 195 0
35 196 0
35 197 0
35 279 0
36 132 0
36 133 0
36 153 0
36 233 0
36 234 0
36 281 0
37 105 0
37 111 0
37 140 0
37 141 0
37 160 0
37 241 0
37 242 0
37 277 0
38 143 0
38 166 0
38 178 0
38 179 0
38 316 0
38 319 0
39 151 0
39 170 0
39 198 0
39 199 0
39 200 0
39 201 0
40 134 0
40 135 0
40 157 0
40 174 0
40 235 0
40 236 0
41 106 0
41 144 0
41 152 0
41 159 0
41 165 0
41 169 0
42 107 0
42 149 0
42 150 0
42 162 0
42 206 0
42 208 0
42 245 0
42 246 0
42 382 0
42 383 0
43 154 0
43 158 0
43 172 0
43 173 0
43 180 0
43 181 0
43 320 0
43 321 0
44 148 0
44 183 0
44 211 0
44 280 0
44 322 0
44 326 0
45 156 0
45 209 0
45 210 0
45 212 0
45 213 0
45 282 0
46 112 0
46 138 0
46 139 0
46 164 0
46 239 0
46 240 0
47 108 0
47 161 0
47 214 0
47 215 0
47 217 0
47 218 0
47 223 0
47 224 0
47 226 0
47 227 0
48 147 0
48 155 0
48 167 0
48 171 0
48 202 0
48 203 0
48 204 0
48 205 0
49 136 0
49 137 0
49 188 0
49 225 0
49 237 0
49 238 0
49 324 0
49 328 0
53 97 0
54 120 0
54 121 0
54 555 0
54 556 0
55 122 0
55 123 0
55 551 0
55 552 0
56 124 0
56 125 0
56 497 0
56 498 0
57 126 0
57 127 0
57 475 0
57 476 0
60 93 0
60 128 0
61 94 0
61 129 0
62 420 0
62 445 0
62 455 0
62 527 0
62 532 0
62 533 0
63 96 0
63 97 0
64 84 0
64 85 0
64 86 0
64 87 0
64 88 0
64 89 0
67 130 0
68 621 0
69 623 0
70 625 0
71 627 0
72 640 0
73 642 0
74 644 0
75 646 0
76 648 0
77 629 0
78 651 0
79 653 0
80 655 0
81 657 0
82 631 0
83 633 0
90 182 0
90 207 0
90 431 0
90 435 0
91 184 0
91 216 0
91 323 0
91 327 0
92 186 0
92 187 0
92 219 0
92 220 0
95 128 0
95 129 0
95 130 0
96 117 0
96 119 0
97 116 0
97 118 0
98 110 0
98 376 0
99 113 0
99 163 0
100 103 0
100 737 0
101 104 0
101 738 0
102 146 0
102 168 0
103 727 0
104 729 0
105 159 0
106 160 0
107 161 0
108 162 0
109 187 0
110 364 0
111 249 0
112 163 0
113 164 0
116 190 0
116 571 0
117 191 0
117 571 0
118 251 0
118 252 0
118 553 0
118 554 0
119 253 0
119 254 0
119 510 0
119 511 0
120 547 0
121 549 0
122 539 0
123 541 0
124 481 0
125 483 0
126 465 0
127 467 0
128 192 0
129 193 0
130 192 0
130 193 0
131 604 0
131 605 0
131 606 0
131 607 0
131 608 0
131 609 0
131 610 0
131 611 0
132 195 0
133 197 0
134 199 0
135 201 0
136 203 0
137 205 0
138 210 0
139 213 0
140 215 0
141 218 0
142 220 0
143 165 0
144 166 0
145 267 0
146 167 0
147 168 0
148 269 0
149 224 0
150 227 0
151 169 0
152 170 0
153 273 0
154 171 0
155 172 0
156 275 0
157 173 0
158 174 0
159 177 0
160 177 0
161 185 0
162 185 0
163 189 0
164 189 0
165 221 0
166 221 0
167 222 0
168 222 0
169 228 0
170 228 0
171 229 0
172 229 0
173 230 0
174 230 0
175 284 0
176 286 0
177 231 0
178 288 0
179 290 0
180 292 0
181 294 0
182 416 0
183 296 0
184 298 0
185 243 0
186 232 0
187 248 0
188 301 0
189 247 0
192 581 0
192 582 0
192 583 0
192 584 0
192 595 0
192 596 0
192 597 0
192 598 0
193 585 0
193 586 0
193 587 0
193 599 0
193 600 0
193 601 0
193 602 0
193 603 0
194 233 0
195 255 0
196 234 0
197 256 0
198 235 0
199 257 0
200 236 0
201 258 0
202 237 0
203 259 0
204 238 0
205 260 0
206 368 0
207 422 0
208 370 0
209 239 0
210 261 0
211 305 0
212 240 0
213 262 0
214 241 0
215 263 0
216 307 0
217 242 0
218 264 0
219 244 0
220 265 0
221 266 0
221 267 0
222 268 0
222 269 0
223 245 0
224 270 0
225 310 0
226 246 0
227 271 0
228 272 0
228 273 0
229 274 0
229 275 0
230 249 0
230 250 0
231 317 0
231 318 0
231 438 0
231 439 0
232 248 0
233 255 0
234 256 0
235 257 0
236 258 0
237 259 0
238 260 0
239 261 0
240 262 0
241 263 0
242 264 0
243 276 0
243 441 0
244 265 0
245 270 0
246 271 0
247 278 0
247 419 0
248 283 0
249 303 0
250 277 0
251 543 0
252 545 0
253 493 0
254 495 0
255 286 0
255 287 0
256 284 0
256 285 0
257 288 0
257 289 0
258 290 0
258 291 0
259 294 0
259 295 0
260 292 0
260 293 0
261 304 0
261 305 0
262 296 0
262 297 0
263 306 0
263 307 0
264 298 0
264 299 0
265 300 0
265 749 0
266 279 0
267 308 0
268 280 0
269 311 0
270 309 0
270 310 0
271 301 0
271 302 0
272 281 0
273 313 0
274 282 0
275 312 0
276 432 0
277 303 0
278 404 0
279 308 0
280 311 0
281 313 0
282 312 0
283 325 0
283 509 0
284 330 0
285 314 0
286 331 0
287 315 0
288 332 0
289 316 0
290 333 0
291 319 0
292 334 0
293 320 0
294 335 0
295 321 0
296 336 0
297 322 0
298 337 0
299 323 0
300 747 0
301 339 0
302 324 0
303 329 0
304 326 0
305 344 0
306 327 0
307 343 0
308 338 0
308 403 0
309 328 0
310 345 0
311 340 0
311 361 0
312 341 0
312 351 0
313 342 0
313 350 0
314 330 0
315 331 0
316 332 0
317 427 0
318 429 0
319 333 0
320 334 0
321 335 0
322 336 0
323 337 0
324 339 0
325 492 0
326 344 0
327 343 0
328 345 0
329 352 0
329 375 0
330 346 0
331 372 0
331 373 0
331 423 0
331 424 0
332 366 0
332 367 0
332 393 0
332 394 0
333 349 0
334 347 0
335 368 0
335 369 0
335 370 0
335 371 0
335 398 0
335 399 0
335 400 0
335 401 0
336 348 0
337 353 0
338 390 0
339 354 0
340 357 0
341 350 0
342 351 0
343 355 0
343 518 0
344 356 0
344 397 0
345 357 0
345 358 0
346 378 0
346 379 0
346 380 0
346 381 0
347 384 0
347 385 0
347 408 0
347 409 0
347 411 0
347 412 0
348 387 0
348 389 0
348 402 0
348 410 0
348 414 0
348 415 0
348 461 0
348 470 0
349 377 0
349 388 0
349 454 0
349 458 0
350 359 0
351 359 0
352 362 0
353 360 0
353 516 0
354 362 0
354 363 0
355 508 0
356 384 0
357 374 0
358 361 0
359 364 0
359 365 0
360 503 0
361 374 0
362 386 0
363 375 0
364 392 0
365 376 0
366 378 0
367 380 0
368 395 0
369 382 0
370 396 0
371 383 0
372 409 0
373 412 0
374 390 0
374 391 0
375 386 0
376 392 0
377 442 0
378 406 0
379 393 0
380 407 0
381 394 0
382 395 0
383 396 0
384 413 0
385 397 0
386 404 0
386 405 0
387 399 0
388 447 0
389 401 0
390 418 0
391 403 0
392 420 0
392 444 0
392 725 0
393 406 0
394 407 0
395 421 0
395 422 0
396 416 0
396 417 0
397 413 0
398 414 0
399 425 0
400 415 0
401 426 0
402 451 0
403 418 0
404 434 0
405 419 0
406 429 0
406 430 0
407 427 0
407 428 0
408 423 0
409 436 0
410 457 0
411 424 0
412 437 0
413 432 0
413 433 0
414 425 0
415 426 0
416 440 0
417 431 0
418 445 0
418 464 0
418 724 0
419 434 0
420 465 0
420 466 0
420 467 0
420 468 0
421 435 0
422 448 0
423 436 0
424 437 0
425 446 0
425 447 0
426 442 0
426 443 0
427 449 0
428 438 0
429 450 0
430 439 0
431 440 0
432 453 0
433 441 0
434 455 0
434 474 0
434 726 0
435 448 0
436 456 0
436 457 0
437 451 0
437 452 0
438 449 0
439 450 0
440 459 0
441 453 0
442 463 0
443 454 0
444 713 0
445 481 0
445 482 0
445 483 0
445 484 0
446 458 0
447 471 0
448 469 0
448 515 0
449 460 0
450 489 0
450 490 0
450 500 0
450 501 0
451 472 0
452 461 0
453 462 0
454 463 0
455 493 0
455 494 0
455 495 0
455 496 0
456 470 0
457 478 0
458 471 0
459 473 0
459 506 0
461 472 0
463 477 0
464 712 0
465 485 0
466 475 0
467 486 0
468 476 0
469 501 0
470 478 0
471 487 0
471 731 0
472 488 0
473 490 0
474 714 0
475 485 0
476 486 0
477 491 0
477 492 0
478 502 0
478 503 0
479 504 0
479 705 0
480 505 0
480 706 0
481 512 0
482 497 0
483 513 0
484 498 0
485 499 0
486 514 0
487 721 0
488 507 0
488 508 0
489 506 0
490 517 0
491 509 0
492 519 0
493 520 0
494 510 0
495 521 0
496 511 0
497 512 0
498 513 0
499 571 0
500 515 0
501 523 0
502 516 0
503 524 0
504 695 0
505 697 0
506 517 0
507 518 0
508 526 0
509 519 0
510 520 0
511 521 0
512 522 0
513 529 0
515 523 0
516 524 0
517 525 0
518 526 0
519 527 0
520 528 0
521 534 0
522 571 0
523 530 0
523 722 0
524 531 0
524 723 0
525 532 0
526 533 0
527 539 0
527 540 0
527 541 0
527 542 0
528 571 0
530 710 0
531 711 0
532 543 0
532 544 0
532 545 0
532 546 0
533 547 0
533 548 0
533 549 0
533 550 0
535 581 0
535 584 0
535 597 0
535 602 0
535 604 0
535 605 0
535 606 0
535 609 0
535 610 0
535 611 0
536 583 0
536 585 0
536 596 0
536 601 0
536 608 0
537 582 0
537 587 0
537 595 0
537 599 0
537 600 0
537 603 0
537 607 0
538 586 0
538 598 0
539 557 0
540 551 0
541 558 0
542 552 0
543 559 0
544 553 0
545 560 0
546 554 0
547 561 0
548 555 0
549 562 0
550 556 0
551 557 0
552 558 0
553 559 0
554 560 0
555 561 0
556 562 0
557 563 0
558 566 0
559 564 0
560 567 0
561 565 0
562 569 0
563 571 0
564 571 0
565 571 0
568 581 0
568 582 0
568 583 0
568 584 0
568 585 0
568 586 0
568 587 0
568 595 0
568 596 0
568 597 0
568 598 0
568 599 0
568 604 0
570 581 0
570 582 0
570 583 0
570 584 0
570 585 0
570 586 0
570 587 0
570 600 0
570 601 0
570 602 0
570 603 0
570 605 0
572 582 0
572 583 0
572 598 0
572 604 0
572 605 0
572 607 0
572 608 0
572 610 0
572 611 0
573 584 0
573 599 0
573 603 0
573 609 0
574 581 0
574 586 0
574 595 0
574 596 0
574 600 0
574 601 0
574 606 0
575 585 0
575 587 0
575 597 0
575 602 0
576 694 699 0
577 611 0
578 600 0
578 601 0
578 602 0
578 603 0
578 605 0
578 606 0
578 607 0
578 608 0
578 609 0
578 610 0
579 610 0
580 595 0
580 596 0
580 597 0
580 598 0
580 599 0
580 604 0
580 606 0
580 607 0
580 608 0
580 609 0
580 611 0
581 661 0
582 661 0
583 661 0
584 661 0
585 662 0
586 662 0
587 662 0
588 621 0
588 622 0
589 623 0
589 624 0
590 625 0
590 626 0
591 627 0
591 628 0
592 629 0
592 630 0
593 631 0
593 632 0
594 633 0
594 634 0
595 661 0
596 661 0
597 661 0
598 661 0
599 662 0
600 662 0
601 662 0
602 662 0
603 662 0
612 640 0
612 641 0
613 642 0
613 643 0
614 644 0
614 645 0
615 646 0
615 647 0
616 648 0
616 649 0
617 651 0
617 652 0
618 653 0
618 654 0
619 655 0
619 656 0
620 657 0
620 658 0
621 665 0
622 636 0
623 666 0
624 637 0
625 667 0
626 638 0
627 668 0
628 639 0
629 674 0
630 650 0
631 679 0
632 659 0
633 680 0
634 660 0
636 665 0
637 666 0
638 667 0
639 668 0
640 683 0
641 669 0
642 684 0
643 670 0
644 685 0
645 671 0
646 686 0
647 672 0
648 687 0
649 673 0
650 674 0
651 688 0
652 675 0
653 689 0
654 676 0
655 690 0
656 677 0
657 691 0
658 678 0
659 679 0
660 680 0
663 693 0
664 693 0
669 683 0
670 684 0
671 685 0
672 686 0
673 687 0
675 688 0
676 689 0
677 690 0
678 691 0
681 695 0
681 696 0
682 697 0
682 698 0
695 708 0
696 705 0
697 709 0
698 706 0
700 710 0
700 715 0
701 711 0
701 716 0
702 712 0
702 717 0
703 713 0
703 718 0
704 714 0
704 719 0
705 708 0
706 709 0
707 720 0
707 721 0
708 727 0
708 728 0
709 729 0
709 730 0
710 732 0
711 733 0
712 734 0
713 735 0
714 736 0
715 722 0
716 723 0
717 724 0
718 725 0
719 726 0
720 731 0
721 739 0
722 732 0
723 733 0
724 734 0
725 735 0
726 736 0
727 745 0
728 737 0
729 746 0
730 738 0
731 739 0
737 745 0
738 746 0
739 747 0
739 748 0
747 750 0
748 749 0
749 750 0
